c generated by sgen
p cnf 65 140
-2 -3 -4 0
-1 -3 -4 0
-1 -2 -4 0
-1 -2 -3 0
-6 -7 -8 0
-5 -7 -8 0
-5 -6 -8 0
-5 -6 -7 0
-10 -11 -12 0
-9 -11 -12 0
-9 -10 -12 0
-9 -10 -11 0
-14 -15 -16 0
-13 -15 -16 0
-13 -14 -16 0
-13 -14 -15 0
-18 -19 -20 0
-17 -19 -20 0
-17 -18 -20 0
-17 -18 -19 0
-22 -23 -24 0
-21 -23 -24 0
-21 -22 -24 0
-21 -22 -23 0
-26 -27 -28 0
-25 -27 -28 0
-25 -26 -28 0
-25 -26 -27 0
-30 -31 -32 0
-29 -31 -32 0
-29 -30 -32 0
-29 -30 -31 0
-34 -35 -36 0
-33 -35 -36 0
-33 -34 -36 0
-33 -34 -35 0
-38 -39 -40 0
-37 -39 -40 0
-37 -38 -40 0
-37 -38 -39 0
-42 -43 -44 0
-41 -43 -44 0
-41 -42 -44 0
-41 -42 -43 0
-46 -47 -48 0
-45 -47 -48 0
-45 -46 -48 0
-45 -46 -47 0
-50 -51 -52 0
-49 -51 -52 0
-49 -50 -52 0
-49 -50 -51 0
-54 -55 -56 0
-53 -55 -56 0
-53 -54 -56 0
-53 -54 -55 0
-58 -59 -60 0
-57 -59 -60 0
-57 -58 -60 0
-57 -58 -59 0
-61 -62 -63 0
-61 -62 -64 0
-61 -62 -65 0
-61 -63 -64 0
-61 -63 -65 0
-61 -64 -65 0
-62 -63 -64 0
-62 -63 -65 0
-62 -64 -65 0
-63 -64 -65 0
55 39 61 0
16 39 61 0
16 55 61 0
16 55 39 0
20 34 54 0
32 34 54 0
32 20 54 0
32 20 34 0
26 29 65 0
7 29 65 0
7 26 65 0
7 26 29 0
24 3 63 0
10 3 63 0
10 24 63 0
10 24 3 0
30 1 37 0
51 1 37 0
51 30 37 0
51 30 1 0
35 8 38 0
21 8 38 0
21 35 38 0
21 35 8 0
2 6 41 0
15 6 41 0
15 2 41 0
15 2 6 0
25 4 58 0
56 4 58 0
56 25 58 0
56 25 4 0
62 44 17 0
27 44 17 0
27 62 17 0
27 62 44 0
19 52 23 0
59 52 23 0
59 19 23 0
59 19 52 0
36 57 45 0
64 57 45 0
64 36 45 0
64 36 57 0
42 60 40 0
11 60 40 0
11 42 40 0
11 42 60 0
49 43 53 0
48 43 53 0
48 49 53 0
48 49 43 0
14 46 22 0
31 46 22 0
31 14 22 0
31 14 46 0
18 9 47 0
5 9 47 0
5 18 47 0
5 18 9 0
33 13 12 0
33 13 50 0
33 13 28 0
33 12 50 0
33 12 28 0
33 50 28 0
13 12 50 0
13 12 28 0
13 50 28 0
12 50 28 0
